SimulationType                  MonteCarlo
NumberOfCycles                  $NumberOfCycles
NumberOfInitializationCycles    $NumberOfInitializationCycles
PrintEvery                      10
RestartFile                     $Restart
Movies                          yes
WriteMoviesEvery                10


Forcefield                      $FrameworkName
CutOff                          $Cutoff
UseChargesFromMOLFile           yes
ChargeMethod                    Ewald
CutOff                          12.8

Framework                       0
FrameworkName                   $FrameworkName
InputFileType                   mol
UnitCells                       $UnitCell
ExternalTemperature             $ExternalTemperature
